(declare-fun var0 () String)
(assert (RegexIn var0 (RegexConcat (RegexUnion (RegexPlus (Str2Reg "v")) (RegexStar (Str2Reg "www"))) (RegexConcat (RegexUnion (RegexStar (Str2Reg "sss")) (RegexUnion (Str2Reg "ttt") (Str2Reg "u"))) (RegexConcat (RegexPlus (RegexStar (Str2Reg "r"))) (RegexConcat (RegexStar (RegexUnion (Str2Reg "ppp") (Str2Reg "qq"))) (RegexConcat (RegexUnion (RegexStar (Str2Reg "nnn")) (RegexStar (Str2Reg "oo"))) (RegexConcat (RegexPlus (RegexPlus (Str2Reg "mmm"))) (RegexConcat (RegexUnion (RegexPlus (Str2Reg "k")) (RegexPlus (Str2Reg "lll"))) (RegexConcat (RegexStar (RegexUnion (Str2Reg "ii") (Str2Reg "jjj"))) (RegexConcat (RegexPlus (RegexPlus (Str2Reg "h"))) (RegexConcat (RegexPlus (RegexUnion (Str2Reg "fff") (Str2Reg "ggg"))) (RegexConcat (RegexUnion (RegexPlus (Str2Reg "c")) (RegexUnion (Str2Reg "dd") (Str2Reg "ee"))) (RegexConcat (RegexUnion (RegexStar (Str2Reg "aa")) (RegexStar (Str2Reg "bb"))) (RegexConcat (RegexStar (RegexUnion (Str2Reg "8") (Str2Reg "999"))) (RegexConcat (RegexPlus (RegexStar (Str2Reg "777"))) (RegexConcat (RegexPlus (RegexUnion (Str2Reg "555") (Str2Reg "6"))) (RegexConcat (RegexUnion (RegexPlus (Str2Reg "22")) (RegexUnion (Str2Reg "333") (Str2Reg "4"))) (RegexStar (RegexUnion (Str2Reg "000") (Str2Reg "111")))))))))))))))))))))
(check-sat)